n = 10;
colSum = [5,2,8,6,5,3,3,0,0,4];
rowSum = [2,2,2,3,4,5,6,5,3,4];
groups =
[| 1,1,1,1,1,2,2,2,2,2
| 1,1,3,1,1,1,2,1,1,2
| 3,3,3,1,1,1,2,1,2,2
| 4,3,3,3,3,1,1,1,1,5
| 4,6,6,6,6,1,1,1,1,5
| 4,6,4,6,7,5,5,5,1,5
| 4,4,4,4,7,7,5,5,5,5
| 8,8,9,7,7,7,7,7,10,10
| 8,8,9,7,10,7,7,7,10,10
| 8,9,9,10,10,10,10,10,10,10
|];